NAME           C:\Bruker\Hvattum\knapsack\Problems\class1\100-5-07.mps
ROWS
 N  OBJ
 L  CONSTR1
 L  CONSTR2
 L  CONSTR3
 L  CONSTR4
 L  CONSTR5
COLUMNS
    INT0001   'MARKER'  'INTORG'
    X1        OBJ       695
    X1        CONSTR1   919
    X1        CONSTR2   673
    X1        CONSTR3   945
    X1        CONSTR4   165
    X1        CONSTR5   464
    X2        OBJ       601
    X2        CONSTR1   871
    X2        CONSTR2   442
    X2        CONSTR3   104
    X2        CONSTR4   522
    X2        CONSTR5   766
    X3        OBJ       648
    X3        CONSTR1   228
    X3        CONSTR2   727
    X3        CONSTR3   290
    X3        CONSTR4   445
    X3        CONSTR5   484
    X4        OBJ       914
    X4        CONSTR1   796
    X4        CONSTR2   426
    X4        CONSTR3   335
    X4        CONSTR4   627
    X4        CONSTR5   663
    X5        OBJ       892
    X5        CONSTR1   165
    X5        CONSTR2   597
    X5        CONSTR3   950
    X5        CONSTR4   395
    X5        CONSTR5   671
    X6        OBJ       897
    X6        CONSTR1   339
    X6        CONSTR2   560
    X6        CONSTR3   390
    X6        CONSTR4   820
    X6        CONSTR5   983
    X7        OBJ       606
    X7        CONSTR1   347
    X7        CONSTR2   184
    X7        CONSTR3   137
    X7        CONSTR4   330
    X7        CONSTR5   404
    X8        OBJ       977
    X8        CONSTR1   285
    X8        CONSTR2   827
    X8        CONSTR3   17
    X8        CONSTR4   985
    X8        CONSTR5   804
    X9        OBJ       665
    X9        CONSTR1   148
    X9        CONSTR2   746
    X9        CONSTR3   136
    X9        CONSTR4   255
    X9        CONSTR5   149
    X10       OBJ       1258
    X10       CONSTR1   900
    X10       CONSTR2   786
    X10       CONSTR3   781
    X10       CONSTR4   840
    X10       CONSTR5   641
    X11       OBJ       928
    X11       CONSTR1   859
    X11       CONSTR2   778
    X11       CONSTR3   268
    X11       CONSTR4   976
    X11       CONSTR5   897
    X12       OBJ       701
    X12       CONSTR1   647
    X12       CONSTR2   508
    X12       CONSTR3   753
    X12       CONSTR4   568
    X12       CONSTR5   141
    X13       OBJ       526
    X13       CONSTR1   313
    X13       CONSTR2   447
    X13       CONSTR3   872
    X13       CONSTR4   473
    X13       CONSTR5   320
    X14       OBJ       925
    X14       CONSTR1   478
    X14       CONSTR2   121
    X14       CONSTR3   527
    X14       CONSTR4   547
    X14       CONSTR5   602
    X15       OBJ       860
    X15       CONSTR1   520
    X15       CONSTR2   314
    X15       CONSTR3   63
    X15       CONSTR4   864
    X15       CONSTR5   271
    X16       OBJ       1148
    X16       CONSTR1   674
    X16       CONSTR2   896
    X16       CONSTR3   718
    X16       CONSTR4   214
    X16       CONSTR5   964
    X17       OBJ       749
    X17       CONSTR1   256
    X17       CONSTR2   594
    X17       CONSTR3   821
    X17       CONSTR4   308
    X17       CONSTR5   851
    X18       OBJ       672
    X18       CONSTR1   192
    X18       CONSTR2   900
    X18       CONSTR3   615
    X18       CONSTR4   842
    X18       CONSTR5   810
    X19       OBJ       813
    X19       CONSTR1   66
    X19       CONSTR2   656
    X19       CONSTR3   25
    X19       CONSTR4   188
    X19       CONSTR5   685
    X20       OBJ       860
    X20       CONSTR1   797
    X20       CONSTR2   637
    X20       CONSTR3   635
    X20       CONSTR4   345
    X20       CONSTR5   780
    X21       OBJ       564
    X21       CONSTR1   277
    X21       CONSTR2   337
    X21       CONSTR3   535
    X21       CONSTR4   529
    X21       CONSTR5   120
    X22       OBJ       1079
    X22       CONSTR1   847
    X22       CONSTR2   875
    X22       CONSTR3   15
    X22       CONSTR4   789
    X22       CONSTR5   379
    X23       OBJ       904
    X23       CONSTR1   571
    X23       CONSTR2   187
    X23       CONSTR3   602
    X23       CONSTR4   643
    X23       CONSTR5   252
    X24       OBJ       510
    X24       CONSTR1   319
    X24       CONSTR2   117
    X24       CONSTR3   125
    X24       CONSTR4   75
    X24       CONSTR5   781
    X25       OBJ       1113
    X25       CONSTR1   868
    X25       CONSTR2   281
    X25       CONSTR3   549
    X25       CONSTR4   874
    X25       CONSTR5   827
    X26       OBJ       1081
    X26       CONSTR1   937
    X26       CONSTR2   209
    X26       CONSTR3   854
    X26       CONSTR4   824
    X26       CONSTR5   271
    X27       OBJ       914
    X27       CONSTR1   830
    X27       CONSTR2   441
    X27       CONSTR3   456
    X27       CONSTR4   41
    X27       CONSTR5   838
    X28       OBJ       843
    X28       CONSTR1   827
    X28       CONSTR2   681
    X28       CONSTR3   957
    X28       CONSTR4   322
    X28       CONSTR5   272
    X29       OBJ       701
    X29       CONSTR1   306
    X29       CONSTR2   16
    X29       CONSTR3   688
    X29       CONSTR4   77
    X29       CONSTR5   751
    X30       OBJ       822
    X30       CONSTR1   6
    X30       CONSTR2   871
    X30       CONSTR3   199
    X30       CONSTR4   597
    X30       CONSTR5   431
    X31       OBJ       821
    X31       CONSTR1   600
    X31       CONSTR2   692
    X31       CONSTR3   812
    X31       CONSTR4   751
    X31       CONSTR5   551
    X32       OBJ       766
    X32       CONSTR1   925
    X32       CONSTR2   33
    X32       CONSTR3   413
    X32       CONSTR4   604
    X32       CONSTR5   905
    X33       OBJ       922
    X33       CONSTR1   736
    X33       CONSTR2   555
    X33       CONSTR3   892
    X33       CONSTR4   334
    X33       CONSTR5   620
    X34       OBJ       794
    X34       CONSTR1   583
    X34       CONSTR2   328
    X34       CONSTR3   368
    X34       CONSTR4   3
    X34       CONSTR5   983
    X35       OBJ       564
    X35       CONSTR1   128
    X35       CONSTR2   613
    X35       CONSTR3   86
    X35       CONSTR4   856
    X35       CONSTR5   796
    X36       OBJ       612
    X36       CONSTR1   832
    X36       CONSTR2   157
    X36       CONSTR3   546
    X36       CONSTR4   381
    X36       CONSTR5   478
    X37       OBJ       785
    X37       CONSTR1   250
    X37       CONSTR2   678
    X37       CONSTR3   913
    X37       CONSTR4   188
    X37       CONSTR5   935
    X38       OBJ       692
    X38       CONSTR1   531
    X38       CONSTR2   856
    X38       CONSTR3   87
    X38       CONSTR4   916
    X38       CONSTR5   251
    X39       OBJ       639
    X39       CONSTR1   318
    X39       CONSTR2   50
    X39       CONSTR3   390
    X39       CONSTR4   831
    X39       CONSTR5   806
    X40       OBJ       787
    X40       CONSTR1   570
    X40       CONSTR2   104
    X40       CONSTR3   533
    X40       CONSTR4   456
    X40       CONSTR5   67
    X41       OBJ       684
    X41       CONSTR1   476
    X41       CONSTR2   303
    X41       CONSTR3   85
    X41       CONSTR4   663
    X41       CONSTR5   447
    X42       OBJ       962
    X42       CONSTR1   213
    X42       CONSTR2   355
    X42       CONSTR3   844
    X42       CONSTR4   873
    X42       CONSTR5   127
    X43       OBJ       645
    X43       CONSTR1   756
    X43       CONSTR2   824
    X43       CONSTR3   317
    X43       CONSTR4   217
    X43       CONSTR5   389
    X44       OBJ       862
    X44       CONSTR1   510
    X44       CONSTR2   377
    X44       CONSTR3   457
    X44       CONSTR4   975
    X44       CONSTR5   172
    X45       OBJ       658
    X45       CONSTR1   335
    X45       CONSTR2   297
    X45       CONSTR3   72
    X45       CONSTR4   174
    X45       CONSTR5   409
    X46       OBJ       462
    X46       CONSTR1   440
    X46       CONSTR2   255
    X46       CONSTR3   238
    X46       CONSTR4   919
    X46       CONSTR5   273
    X47       OBJ       729
    X47       CONSTR1   190
    X47       CONSTR2   839
    X47       CONSTR3   583
    X47       CONSTR4   150
    X47       CONSTR5   116
    X48       OBJ       662
    X48       CONSTR1   696
    X48       CONSTR2   464
    X48       CONSTR3   412
    X48       CONSTR4   490
    X48       CONSTR5   959
    X49       OBJ       1103
    X49       CONSTR1   902
    X49       CONSTR2   841
    X49       CONSTR3   804
    X49       CONSTR4   914
    X49       CONSTR5   499
    X50       OBJ       772
    X50       CONSTR1   518
    X50       CONSTR2   137
    X50       CONSTR3   207
    X50       CONSTR4   222
    X50       CONSTR5   880
    X51       OBJ       942
    X51       CONSTR1   955
    X51       CONSTR2   239
    X51       CONSTR3   505
    X51       CONSTR4   143
    X51       CONSTR5   657
    X52       OBJ       811
    X52       CONSTR1   222
    X52       CONSTR2   971
    X52       CONSTR3   782
    X52       CONSTR4   921
    X52       CONSTR5   591
    X53       OBJ       669
    X53       CONSTR1   900
    X53       CONSTR2   475
    X53       CONSTR3   643
    X53       CONSTR4   594
    X53       CONSTR5   240
    X54       OBJ       846
    X54       CONSTR1   394
    X54       CONSTR2   737
    X54       CONSTR3   551
    X54       CONSTR4   397
    X54       CONSTR5   561
    X55       OBJ       802
    X55       CONSTR1   650
    X55       CONSTR2   757
    X55       CONSTR3   210
    X55       CONSTR4   670
    X55       CONSTR5   56
    X56       OBJ       1132
    X56       CONSTR1   619
    X56       CONSTR2   582
    X56       CONSTR3   763
    X56       CONSTR4   714
    X56       CONSTR5   938
    X57       OBJ       388
    X57       CONSTR1   185
    X57       CONSTR2   642
    X57       CONSTR3   383
    X57       CONSTR4   469
    X57       CONSTR5   209
    X58       OBJ       798
    X58       CONSTR1   740
    X58       CONSTR2   516
    X58       CONSTR3   857
    X58       CONSTR4   663
    X58       CONSTR5   101
    X59       OBJ       664
    X59       CONSTR1   187
    X59       CONSTR2   198
    X59       CONSTR3   483
    X59       CONSTR4   112
    X59       CONSTR5   812
    X60       OBJ       944
    X60       CONSTR1   187
    X60       CONSTR2   69
    X60       CONSTR3   440
    X60       CONSTR4   890
    X60       CONSTR5   756
    X61       OBJ       687
    X61       CONSTR1   281
    X61       CONSTR2   122
    X61       CONSTR3   279
    X61       CONSTR4   282
    X61       CONSTR5   518
    X62       OBJ       568
    X62       CONSTR1   102
    X62       CONSTR2   677
    X62       CONSTR3   488
    X62       CONSTR4   371
    X62       CONSTR5   635
    X63       OBJ       572
    X63       CONSTR1   578
    X63       CONSTR2   696
    X63       CONSTR3   215
    X63       CONSTR4   620
    X63       CONSTR5   133
    X64       OBJ       1002
    X64       CONSTR1   494
    X64       CONSTR2   665
    X64       CONSTR3   784
    X64       CONSTR4   212
    X64       CONSTR5   404
    X65       OBJ       881
    X65       CONSTR1   75
    X65       CONSTR2   501
    X65       CONSTR3   782
    X65       CONSTR4   887
    X65       CONSTR5   54
    X66       OBJ       871
    X66       CONSTR1   616
    X66       CONSTR2   491
    X66       CONSTR3   39
    X66       CONSTR4   159
    X66       CONSTR5   990
    X67       OBJ       605
    X67       CONSTR1   348
    X67       CONSTR2   523
    X67       CONSTR3   985
    X67       CONSTR4   352
    X67       CONSTR5   193
    X68       OBJ       684
    X68       CONSTR1   812
    X68       CONSTR2   699
    X68       CONSTR3   187
    X68       CONSTR4   1
    X68       CONSTR5   763
    X69       OBJ       988
    X69       CONSTR1   985
    X69       CONSTR2   503
    X69       CONSTR3   955
    X69       CONSTR4   691
    X69       CONSTR5   404
    X70       OBJ       943
    X70       CONSTR1   928
    X70       CONSTR2   696
    X70       CONSTR3   603
    X70       CONSTR4   826
    X70       CONSTR5   511
    X71       OBJ       452
    X71       CONSTR1   327
    X71       CONSTR2   75
    X71       CONSTR3   887
    X71       CONSTR4   672
    X71       CONSTR5   58
    X72       OBJ       707
    X72       CONSTR1   860
    X72       CONSTR2   588
    X72       CONSTR3   923
    X72       CONSTR4   821
    X72       CONSTR5   163
    X73       OBJ       727
    X73       CONSTR1   708
    X73       CONSTR2   843
    X73       CONSTR3   537
    X73       CONSTR4   796
    X73       CONSTR5   174
    X74       OBJ       919
    X74       CONSTR1   511
    X74       CONSTR2   575
    X74       CONSTR3   281
    X74       CONSTR4   524
    X74       CONSTR5   354
    X75       OBJ       602
    X75       CONSTR1   35
    X75       CONSTR2   826
    X75       CONSTR3   898
    X75       CONSTR4   741
    X75       CONSTR5   99
    X76       OBJ       915
    X76       CONSTR1   933
    X76       CONSTR2   88
    X76       CONSTR3   54
    X76       CONSTR4   734
    X76       CONSTR5   509
    X77       OBJ       757
    X77       CONSTR1   685
    X77       CONSTR2   497
    X77       CONSTR3   28
    X77       CONSTR4   359
    X77       CONSTR5   100
    X78       OBJ       560
    X78       CONSTR1   875
    X78       CONSTR2   163
    X78       CONSTR3   183
    X78       CONSTR4   894
    X78       CONSTR5   640
    X79       OBJ       741
    X79       CONSTR1   546
    X79       CONSTR2   487
    X79       CONSTR3   66
    X79       CONSTR4   255
    X79       CONSTR5   170
    X80       OBJ       1045
    X80       CONSTR1   793
    X80       CONSTR2   342
    X80       CONSTR3   474
    X80       CONSTR4   714
    X80       CONSTR5   536
    X81       OBJ       831
    X81       CONSTR1   643
    X81       CONSTR2   854
    X81       CONSTR3   689
    X81       CONSTR4   860
    X81       CONSTR5   205
    X82       OBJ       868
    X82       CONSTR1   856
    X82       CONSTR2   144
    X82       CONSTR3   35
    X82       CONSTR4   432
    X82       CONSTR5   759
    X83       OBJ       593
    X83       CONSTR1   961
    X83       CONSTR2   17
    X83       CONSTR3   572
    X83       CONSTR4   298
    X83       CONSTR5   628
    X84       OBJ       935
    X84       CONSTR1   252
    X84       CONSTR2   488
    X84       CONSTR3   860
    X84       CONSTR4   488
    X84       CONSTR5   731
    X85       OBJ       911
    X85       CONSTR1   504
    X85       CONSTR2   754
    X85       CONSTR3   498
    X85       CONSTR4   973
    X85       CONSTR5   778
    X86       OBJ       587
    X86       CONSTR1   167
    X86       CONSTR2   610
    X86       CONSTR3   741
    X86       CONSTR4   327
    X86       CONSTR5   138
    X87       OBJ       498
    X87       CONSTR1   475
    X87       CONSTR2   850
    X87       CONSTR3   99
    X87       CONSTR4   146
    X87       CONSTR5   443
    X88       OBJ       525
    X88       CONSTR1   416
    X88       CONSTR2   379
    X88       CONSTR3   295
    X88       CONSTR4   115
    X88       CONSTR5   66
    X89       OBJ       971
    X89       CONSTR1   11
    X89       CONSTR2   903
    X89       CONSTR3   843
    X89       CONSTR4   634
    X89       CONSTR5   407
    X90       OBJ       687
    X90       CONSTR1   330
    X90       CONSTR2   991
    X90       CONSTR3   766
    X90       CONSTR4   355
    X90       CONSTR5   146
    X91       OBJ       895
    X91       CONSTR1   866
    X91       CONSTR2   332
    X91       CONSTR3   879
    X91       CONSTR4   967
    X91       CONSTR5   408
    X92       OBJ       478
    X92       CONSTR1   390
    X92       CONSTR2   54
    X92       CONSTR3   693
    X92       CONSTR4   69
    X92       CONSTR5   305
    X93       OBJ       763
    X93       CONSTR1   283
    X93       CONSTR2   62
    X93       CONSTR3   103
    X93       CONSTR4   334
    X93       CONSTR5   580
    X94       OBJ       729
    X94       CONSTR1   100
    X94       CONSTR2   277
    X94       CONSTR3   6
    X94       CONSTR4   561
    X94       CONSTR5   386
    X95       OBJ       690
    X95       CONSTR1   581
    X95       CONSTR2   388
    X95       CONSTR3   384
    X95       CONSTR4   822
    X95       CONSTR5   633
    X96       OBJ       730
    X96       CONSTR1   860
    X96       CONSTR2   26
    X96       CONSTR3   135
    X96       CONSTR4   146
    X96       CONSTR5   969
    X97       OBJ       950
    X97       CONSTR1   816
    X97       CONSTR2   554
    X97       CONSTR3   842
    X97       CONSTR4   183
    X97       CONSTR5   215
    X98       OBJ       1180
    X98       CONSTR1   403
    X98       CONSTR2   714
    X98       CONSTR3   934
    X98       CONSTR4   678
    X98       CONSTR5   795
    X99       OBJ       1023
    X99       CONSTR1   744
    X99       CONSTR2   504
    X99       CONSTR3   561
    X99       CONSTR4   677
    X99       CONSTR5   617
    X100      OBJ       885
    X100      CONSTR1   826
    X100      CONSTR2   622
    X100      CONSTR3   836
    X100      CONSTR4   600
    X100      CONSTR5   620
    INT0001   'MARKER'  'INTEND'
RHS
    RHS10001  CONSTR1   13278
    RHS10001  CONSTR2   12340
    RHS10001  CONSTR3   12364
    RHS10001  CONSTR4   13137
    RHS10001  CONSTR5   12523
BOUNDS
 BV BND       X1        .00
 BV BND       X2        .00
 BV BND       X3        .00
 BV BND       X4        .00
 BV BND       X5        .00
 BV BND       X6        .00
 BV BND       X7        .00
 BV BND       X8        .00
 BV BND       X9        .00
 BV BND       X10       .00
 BV BND       X11       .00
 BV BND       X12       .00
 BV BND       X13       .00
 BV BND       X14       .00
 BV BND       X15       .00
 BV BND       X16       .00
 BV BND       X17       .00
 BV BND       X18       .00
 BV BND       X19       .00
 BV BND       X20       .00
 BV BND       X21       .00
 BV BND       X22       .00
 BV BND       X23       .00
 BV BND       X24       .00
 BV BND       X25       .00
 BV BND       X26       .00
 BV BND       X27       .00
 BV BND       X28       .00
 BV BND       X29       .00
 BV BND       X30       .00
 BV BND       X31       .00
 BV BND       X32       .00
 BV BND       X33       .00
 BV BND       X34       .00
 BV BND       X35       .00
 BV BND       X36       .00
 BV BND       X37       .00
 BV BND       X38       .00
 BV BND       X39       .00
 BV BND       X40       .00
 BV BND       X41       .00
 BV BND       X42       .00
 BV BND       X43       .00
 BV BND       X44       .00
 BV BND       X45       .00
 BV BND       X46       .00
 BV BND       X47       .00
 BV BND       X48       .00
 BV BND       X49       .00
 BV BND       X50       .00
 BV BND       X51       .00
 BV BND       X52       .00
 BV BND       X53       .00
 BV BND       X54       .00
 BV BND       X55       .00
 BV BND       X56       .00
 BV BND       X57       .00
 BV BND       X58       .00
 BV BND       X59       .00
 BV BND       X60       .00
 BV BND       X61       .00
 BV BND       X62       .00
 BV BND       X63       .00
 BV BND       X64       .00
 BV BND       X65       .00
 BV BND       X66       .00
 BV BND       X67       .00
 BV BND       X68       .00
 BV BND       X69       .00
 BV BND       X70       .00
 BV BND       X71       .00
 BV BND       X72       .00
 BV BND       X73       .00
 BV BND       X74       .00
 BV BND       X75       .00
 BV BND       X76       .00
 BV BND       X77       .00
 BV BND       X78       .00
 BV BND       X79       .00
 BV BND       X80       .00
 BV BND       X81       .00
 BV BND       X82       .00
 BV BND       X83       .00
 BV BND       X84       .00
 BV BND       X85       .00
 BV BND       X86       .00
 BV BND       X87       .00
 BV BND       X88       .00
 BV BND       X89       .00
 BV BND       X90       .00
 BV BND       X91       .00
 BV BND       X92       .00
 BV BND       X93       .00
 BV BND       X94       .00
 BV BND       X95       .00
 BV BND       X96       .00
 BV BND       X97       .00
 BV BND       X98       .00
 BV BND       X99       .00
 BV BND       X100      .00
ENDATA
